&CONTROL
    calculation = 'bands'
    pseudo_dir  = '.'
/

&SYSTEM
    a           =  5.46873e+00
    ecutrho     =  1.00000e+02
    ecutwfc     =  2.50000e+01
    ibrav       = 1
    nat         = 8
    nbnd        = 32
    ntyp        = 1
/

&ELECTRONS
	mixing_beta	   = 0.7
	conv_thr 	   = 1.0e-06
/

&BANDS
    lsym           = .True.
/

K_POINTS {crystal_b}
8
gG     20
X      20
M      20
gG     20
R      20
X      0
M      20
R      0

ATOMIC_SPECIES
Si     28.08550  Si.pbe-n-van.UPF

ATOMIC_POSITIONS {angstrom}
Si      0.000000   0.000000   0.000000
Si      4.101546   4.101546   1.367182
Si      0.000000   2.734364   2.734364
Si      4.101546   1.367182   4.101546
Si      2.734364   0.000000   2.734364
Si      1.367182   4.101546   4.101546
Si      2.734364   2.734364   0.000000
Si      1.367182   1.367182   1.367182

