&CONTROL
    calculation = 'scf'
    pseudo_dir  = '.'
	nstep 		= 100
	
/

&SYSTEM
    a           =  5.46873
    ecutwfc     =  25
    ibrav       = 1
    nat         = 8
    ntyp        = 1

/

&ELECTRONS
  conv_thr		= 0.000001
  mixing_beta	= 0.1
/

K_POINTS {automatic}
 8  8  8  0 0 0 

ATOMIC_SPECIES
Si     28.08550  Si.pbe-n-van.UPF

ATOMIC_POSITIONS {angstrom}
Si      0.000000   0.000000   0.000000
Si      4.101546   4.101546   1.367182
Si      0.000000   2.734364   2.734364
Si      4.101546   1.367182   4.101546
Si      2.734364   0.000000   2.734364
Si      1.367182   4.101546   4.101546
Si      2.734364   2.734364   0.000000
Si      1.367182   1.367182   1.367182
